Minimize
  obj: 1.0000000000000000e+00 x0 + 1.0000000000000000e+00 x1 + 1.0000000000000000e+00 x2 + 1.0000000000000000e+00 x3
Subject To
 C0_1 : 1.0000000000000000e+00 x0 + 5.0000000000000000e-01 x1 + 2.5000000000000000e-01 x2 + 1.2500000000000000e-01 x3 >= -1.0000000298023224e+00
 C0_2 : 1.0000000000000000e+00 x0 + 5.0000000000000000e-01 x1 + 2.5000000000000000e-01 x2 + 1.2500000000000000e-01 x3 <= -9.9999994039535545e-01
 C1_1 : 1.0000000000000000e+00 x0 + 5.0000005960464478e-01 x1 + 2.5000005960464833e-01 x2 + 1.2500004470348891e-01 x3 >= -9.9999994039535500e-01
 C1_2 : 1.0000000000000000e+00 x0 + 5.0000005960464478e-01 x1 + 2.5000005960464833e-01 x2 + 1.2500004470348891e-01 x3 <= -9.9999982118606601e-01
 C2_1 : 1.0000000000000000e+00 x0 + 5.0000035762786865e-01 x1 + 2.5000035762799655e-01 x2 + 1.2500026822109334e-01 x3 >= -9.9999898672103860e-01
 C2_2 : 1.0000000000000000e+00 x0 + 5.0000035762786865e-01 x1 + 2.5000035762799655e-01 x2 + 1.2500026822109334e-01 x3 <= -9.9999886751174960e-01
 C3_1 : 1.0000000000000000e+00 x0 + 5.0000154972076416e-01 x1 + 2.5000154972316579e-01 x2 + 1.2500116229417557e-01 x3 >= -9.9999552965164196e-01
 C3_2 : 1.0000000000000000e+00 x0 + 5.0000154972076416e-01 x1 + 2.5000154972316579e-01 x2 + 1.2500116229417557e-01 x3 <= -9.9999541044235252e-01
 C4_1 : 1.0000000000000000e+00 x0 + 5.0000208616256714e-01 x1 + 2.5000208616691921e-01 x2 + 1.2500156462845347e-01 x3 >= -9.9999409914016735e-01
 C4_2 : 1.0000000000000000e+00 x0 + 5.0000208616256714e-01 x1 + 2.5000208616691921e-01 x2 + 1.2500156462845347e-01 x3 <= -9.9999397993087791e-01
 C5_1 : 1.0000000000000000e+00 x0 + 5.0000572204589844e-01 x1 + 2.5000572207864025e-01 x2 + 1.2500429158353671e-01 x3 >= -9.9998360872268688e-01
 C5_2 : 1.0000000000000000e+00 x0 + 5.0000572204589844e-01 x1 + 2.5000572207864025e-01 x2 + 1.2500429158353671e-01 x3 <= -9.9998348951339744e-01
 C6_1 : 1.0000000000000000e+00 x0 + 5.0004208087921143e-01 x1 + 2.5004208265001182e-01 x2 + 1.2503156331568366e-01 x3 >= -9.9987870454788219e-01
 C6_2 : 1.0000000000000000e+00 x0 + 5.0004208087921143e-01 x1 + 2.5004208265001182e-01 x2 + 1.2503156331568366e-01 x3 <= -9.9987858533859275e-01
 C7_1 : 1.0000000000000000e+00 x0 + 5.0013422966003418e-01 x1 + 2.5013424767763581e-01 x2 + 1.2510069927384657e-01 x3 >= -9.9961274862289407e-01
 C7_2 : 1.0000000000000000e+00 x0 + 5.0013422966003418e-01 x1 + 2.5013424767763581e-01 x2 + 1.2510069927384657e-01 x3 <= -9.9961262941360507e-01
 C8_1 : 1.0000000000000000e+00 x0 + 5.0023061037063599e-01 x1 + 2.5023066355177903e-01 x2 + 1.2517303756195566e-01 x3 >= -9.9933475255966164e-01
 C8_2 : 1.0000000000000000e+00 x0 + 5.0023061037063599e-01 x1 + 2.5023066355177903e-01 x2 + 1.2517303756195566e-01 x3 <= -9.9933463335037265e-01
 C9_1 : 1.0000000000000000e+00 x0 + 5.0025004148483276e-01 x1 + 2.5025010400557690e-01 x2 + 1.2518762491037355e-01 x3 >= -9.9927872419357278e-01
 C9_2 : 1.0000000000000000e+00 x0 + 5.0025004148483276e-01 x1 + 2.5025010400557690e-01 x2 + 1.2518762491037355e-01 x3 <= -9.9927860498428378e-01
 C10_1 : 1.0000000000000000e+00 x0 + 5.0032395124435425e-01 x1 + 2.5032405618876297e-01 x2 + 1.2524312088387562e-01 x3 >= -9.9906557798385598e-01
 C10_2 : 1.0000000000000000e+00 x0 + 5.0032395124435425e-01 x1 + 2.5032405618876297e-01 x2 + 1.2524312088387562e-01 x3 <= -9.9906545877456698e-01
 C11_1 : 1.0000000000000000e+00 x0 + 5.0034081935882568e-01 x1 + 2.5034093551666103e-01 x2 + 1.2525578879546112e-01 x3 >= -9.9901694059371926e-01
 C11_2 : 1.0000000000000000e+00 x0 + 5.0034081935882568e-01 x1 + 2.5034093551666103e-01 x2 + 1.2525578879546112e-01 x3 <= -9.9901682138443026e-01
 C12_1 : 1.0000000000000000e+00 x0 + 5.0035309791564941e-01 x1 + 2.5035322259378745e-01 x2 + 1.2526501049796770e-01 x3 >= -9.9898153543472301e-01
 C12_2 : 1.0000000000000000e+00 x0 + 5.0035309791564941e-01 x1 + 2.5035322259378745e-01 x2 + 1.2526501049796770e-01 x3 <= -9.9898141622543357e-01
 C13_1 : 1.0000000000000000e+00 x0 + 5.0047689676284790e-01 x1 + 2.5047712419337032e-01 x2 + 1.2535801382638043e-01 x3 >= -9.9862462282180797e-01
 C13_2 : 1.0000000000000000e+00 x0 + 5.0047689676284790e-01 x1 + 2.5047712419337032e-01 x2 + 1.2535801382638043e-01 x3 <= -9.9862450361251853e-01
 C14_1 : 1.0000000000000000e+00 x0 + 5.0050002336502075e-01 x1 + 2.5050027338838632e-01 x2 + 1.2537539268383144e-01 x3 >= -9.9855798482894875e-01
 C14_2 : 1.0000000000000000e+00 x0 + 5.0050002336502075e-01 x1 + 2.5050027338838632e-01 x2 + 1.2537539268383144e-01 x3 <= -9.9855786561965976e-01
 C15_1 : 1.0000000000000000e+00 x0 + 5.0053268671035767e-01 x1 + 2.5053297046548906e-01 x2 + 1.2539994081661790e-01 x3 >= -9.9846380949020364e-01
 C15_2 : 1.0000000000000000e+00 x0 + 5.0053268671035767e-01 x1 + 2.5053297046548906e-01 x2 + 1.2539994081661790e-01 x3 <= -9.9846369028091464e-01
 C16_1 : 1.0000000000000000e+00 x0 + 5.0053471326828003e-01 x1 + 2.5053499918655930e-01 x2 + 1.2540146398151322e-01 x3 >= -9.9845796823501598e-01
 C16_2 : 1.0000000000000000e+00 x0 + 5.0053471326828003e-01 x1 + 2.5053499918655930e-01 x2 + 1.2540146398151322e-01 x3 <= -9.9845784902572654e-01
 C17_1 : 1.0000000000000000e+00 x0 + 5.0068908929824829e-01 x1 + 2.5068956414230925e-01 x2 + 1.2551752956698761e-01 x3 >= -9.9801307916641246e-01
 C17_2 : 1.0000000000000000e+00 x0 + 5.0068908929824829e-01 x1 + 2.5068956414230925e-01 x2 + 1.2551752956698761e-01 x3 <= -9.9801295995712302e-01
 C18_1 : 1.0000000000000000e+00 x0 + 5.0069814920425415e-01 x1 + 2.5069863661656555e-01 x2 + 1.2552434336194421e-01 x3 >= -9.9798697233200051e-01
 C18_2 : 1.0000000000000000e+00 x0 + 5.0069814920425415e-01 x1 + 2.5069863661656555e-01 x2 + 1.2552434336194421e-01 x3 <= -9.9798685312271151e-01
 C19_1 : 1.0000000000000000e+00 x0 + 5.0075000524520874e-01 x1 + 2.5075056775307658e-01 x2 + 1.2556334811759215e-01 x3 >= -9.9783760309219371e-01
 C19_2 : 1.0000000000000000e+00 x0 + 5.0075000524520874e-01 x1 + 2.5075056775307658e-01 x2 + 1.2556334811759215e-01 x3 <= -9.9783748388290427e-01
 C20_1 : 1.0000000000000000e+00 x0 + 5.0087773799896240e-01 x1 + 2.5087850842295722e-01 x2 + 1.2565945981144444e-01 x3 >= -9.9746960401535012e-01
 C20_2 : 1.0000000000000000e+00 x0 + 5.0087773799896240e-01 x1 + 2.5087850842295722e-01 x2 + 1.2565945981144444e-01 x3 <= -9.9746948480606112e-01
 C21_1 : 1.0000000000000000e+00 x0 + 5.0094884634017944e-01 x1 + 2.5094974664955672e-01 x2 + 1.2571298607345574e-01 x3 >= -9.9726492166519176e-01
 C21_2 : 1.0000000000000000e+00 x0 + 5.0094884634017944e-01 x1 + 2.5094974664955672e-01 x2 + 1.2571298607345574e-01 x3 <= -9.9726480245590232e-01
 C22_1 : 1.0000000000000000e+00 x0 + 5.0099748373031616e-01 x1 + 2.5099847870410841e-01 x2 + 1.2574960625089565e-01 x3 >= -9.9712485074996926e-01
 C22_2 : 1.0000000000000000e+00 x0 + 5.0099748373031616e-01 x1 + 2.5099847870410841e-01 x2 + 1.2574960625089565e-01 x3 <= -9.9712473154068026e-01
 C23_1 : 1.0000000000000000e+00 x0 + 5.0100004673004150e-01 x1 + 2.5100104682350377e-01 x2 + 1.2575153618786472e-01 x3 >= -9.9711745977401711e-01
 C23_2 : 1.0000000000000000e+00 x0 + 5.0100004673004150e-01 x1 + 2.5100104682350377e-01 x2 + 1.2575153618786472e-01 x3 <= -9.9711734056472812e-01
 C24_1 : 1.0000000000000000e+00 x0 + 5.0100684165954590e-01 x1 + 2.5100785538967330e-01 x2 + 1.2575665286051624e-01 x3 >= -9.9709779024124157e-01
 C24_2 : 1.0000000000000000e+00 x0 + 5.0100684165954590e-01 x1 + 2.5100785538967330e-01 x2 + 1.2575665286051624e-01 x3 <= -9.9709767103195213e-01
 C25_1 : 1.0000000000000000e+00 x0 + 5.0110906362533569e-01 x1 + 2.5111029364746074e-01 x2 + 1.2583364411636211e-01 x3 >= -9.9680358171463024e-01
 C25_2 : 1.0000000000000000e+00 x0 + 5.0110906362533569e-01 x1 + 2.5111029364746074e-01 x2 + 1.2583364411636211e-01 x3 <= -9.9680346250534080e-01
 C26_1 : 1.0000000000000000e+00 x0 + 5.0113958120346069e-01 x1 + 2.5114087984877997e-01 x2 + 1.2585663535048622e-01 x3 >= -9.9671560525894176e-01
 C26_2 : 1.0000000000000000e+00 x0 + 5.0113958120346069e-01 x1 + 2.5114087984877997e-01 x2 + 1.2585663535048622e-01 x3 <= -9.9671548604965232e-01
 C27_1 : 1.0000000000000000e+00 x0 + 5.0122207403182983e-01 x1 + 2.5122356749676911e-01 x2 + 1.2591879754640600e-01 x3 >= -9.9647825956344582e-01
 C27_2 : 1.0000000000000000e+00 x0 + 5.0122207403182983e-01 x1 + 2.5122356749676911e-01 x2 + 1.2591879754640600e-01 x3 <= -9.9647814035415683e-01
 C28_1 : 1.0000000000000000e+00 x0 + 5.0125002861022949e-01 x1 + 2.5125159118175588e-01 x2 + 1.2593986726822082e-01 x3 >= -9.9639779329299938e-01
 C28_2 : 1.0000000000000000e+00 x0 + 5.0125002861022949e-01 x1 + 2.5125159118175588e-01 x2 + 1.2593986726822082e-01 x3 <= -9.9639767408370994e-01
 C29_1 : 1.0000000000000000e+00 x0 + 5.0134128332138062e-01 x1 + 2.5134308236232883e-01 x2 + 1.2600866346548140e-01 x3 >= -9.9613517522811867e-01
 C29_2 : 1.0000000000000000e+00 x0 + 5.0134128332138062e-01 x1 + 2.5134308236232883e-01 x2 + 1.2600866346548140e-01 x3 <= -9.9613505601882968e-01
 C30_1 : 1.0000000000000000e+00 x0 + 5.0136029720306396e-01 x1 + 2.5136214761154463e-01 x2 + 1.2602300103212444e-01 x3 >= -9.9608045816421520e-01
 C30_2 : 1.0000000000000000e+00 x0 + 5.0136029720306396e-01 x1 + 2.5136214761154463e-01 x2 + 1.2602300103212444e-01 x3 <= -9.9608033895492576e-01
 C31_1 : 1.0000000000000000e+00 x0 + 5.0144046545028687e-01 x1 + 2.5144254039100034e-01 x2 + 1.2608346448766575e-01 x3 >= -9.9584978818893410e-01
 C31_2 : 1.0000000000000000e+00 x0 + 5.0144046545028687e-01 x1 + 2.5144254039100034e-01 x2 + 1.2608346448766575e-01 x3 <= -9.9584966897964511e-01
 C32_1 : 1.0000000000000000e+00 x0 + 5.0147485733032227e-01 x1 + 2.5147703253446707e-01 x2 + 1.2610940901207468e-01 x3 >= -9.9575084447860696e-01
 C32_2 : 1.0000000000000000e+00 x0 + 5.0147485733032227e-01 x1 + 2.5147703253446707e-01 x2 + 1.2610940901207468e-01 x3 <= -9.9575072526931796e-01
 C33_1 : 1.0000000000000000e+00 x0 + 5.0148260593414307e-01 x1 + 2.5148480405449902e-01 x2 + 1.2611525489008751e-01 x3 >= -9.9572855234146129e-01
 C33_2 : 1.0000000000000000e+00 x0 + 5.0148260593414307e-01 x1 + 2.5148480405449902e-01 x2 + 1.2611525489008751e-01 x3 <= -9.9572843313217185e-01
 C34_1 : 1.0000000000000000e+00 x0 + 5.0150001049041748e-01 x1 + 2.5150226052188884e-01 x2 + 1.2612838629009096e-01 x3 >= -9.9567836523056008e-01
 C34_2 : 1.0000000000000000e+00 x0 + 5.0150001049041748e-01 x1 + 2.5150226052188884e-01 x2 + 1.2612838629009096e-01 x3 <= -9.9567824602127109e-01
 C35_1 : 1.0000000000000000e+00 x0 + 5.0158160924911499e-01 x1 + 2.5158411073693188e-01 x2 + 1.2618996312493783e-01 x3 >= -9.9544376134872414e-01
 C35_2 : 1.0000000000000000e+00 x0 + 5.0158160924911499e-01 x1 + 2.5158411073693188e-01 x2 + 1.2618996312493783e-01 x3 <= -9.9544364213943515e-01
 C36_1 : 1.0000000000000000e+00 x0 + 5.0161290168762207e-01 x1 + 2.5161550313947600e-01 x2 + 1.2621358263938354e-01 x3 >= -9.9535375833511364e-01
 C36_2 : 1.0000000000000000e+00 x0 + 5.0161290168762207e-01 x1 + 2.5161550313947600e-01 x2 + 1.2621358263938354e-01 x3 <= -9.9535363912582420e-01
 C37_1 : 1.0000000000000000e+00 x0 + 5.0163453817367554e-01 x1 + 2.5163720988871674e-01 x2 + 1.2622991556983867e-01 x3 >= -9.9529153108596813e-01
 C37_2 : 1.0000000000000000e+00 x0 + 5.0163453817367554e-01 x1 + 2.5163720988871674e-01 x2 + 1.2622991556983867e-01 x3 <= -9.9529141187667869e-01
 C38_1 : 1.0000000000000000e+00 x0 + 5.0164079666137695e-01 x1 + 2.5164348887506094e-01 x2 + 1.2623464023393391e-01 x3 >= -9.9527353048324563e-01
 C38_2 : 1.0000000000000000e+00 x0 + 5.0164079666137695e-01 x1 + 2.5164348887506094e-01 x2 + 1.2623464023393391e-01 x3 <= -9.9527341127395663e-01
 C39_1 : 1.0000000000000000e+00 x0 + 5.0172710418701172e-01 x1 + 2.5173008707588451e-01 x2 + 1.2629980762532783e-01 x3 >= -9.9502533674240090e-01
 C39_2 : 1.0000000000000000e+00 x0 + 5.0172710418701172e-01 x1 + 2.5173008707588451e-01 x2 + 1.2629980762532783e-01 x3 <= -9.9502521753311191e-01
 C40_1 : 1.0000000000000000e+00 x0 + 5.0174999237060547e-01 x1 + 2.5175305484390265e-01 x2 + 1.2631709334720476e-01 x3 >= -9.9495941400527965e-01
 C40_2 : 1.0000000000000000e+00 x0 + 5.0174999237060547e-01 x1 + 2.5175305484390265e-01 x2 + 1.2631709334720476e-01 x3 <= -9.9495929479599021e-01
 C41_1 : 1.0000000000000000e+00 x0 + 5.0176823139190674e-01 x1 + 2.5177135803416206e-01 x2 + 1.2633086903594001e-01 x3 >= -9.9490708112716653e-01
 C41_2 : 1.0000000000000000e+00 x0 + 5.0176823139190674e-01 x1 + 2.5177135803416206e-01 x2 + 1.2633086903594001e-01 x3 <= -9.9490696191787753e-01
 C42_1 : 1.0000000000000000e+00 x0 + 5.0186973810195923e-01 x1 + 2.5187323402252915e-01 x2 + 1.2640755399378018e-01 x3 >= -9.9461525678634621e-01
 C42_2 : 1.0000000000000000e+00 x0 + 5.0186973810195923e-01 x1 + 2.5187323402252915e-01 x2 + 1.2640755399378018e-01 x3 <= -9.9461513757705722e-01
 C43_1 : 1.0000000000000000e+00 x0 + 5.0196462869644165e-01 x1 + 2.5196848846235653e-01 x2 + 1.2647926875421042e-01 x3 >= -9.9434250593185403e-01
 C43_2 : 1.0000000000000000e+00 x0 + 5.0196462869644165e-01 x1 + 2.5196848846235653e-01 x2 + 1.2647926875421042e-01 x3 <= -9.9434238672256503e-01
 C44_1 : 1.0000000000000000e+00 x0 + 5.0197172164916992e-01 x1 + 2.5197560933543173e-01 x2 + 1.2648463043170530e-01 x3 >= -9.9432212114334118e-01
 C44_2 : 1.0000000000000000e+00 x0 + 5.0197172164916992e-01 x1 + 2.5197560933543173e-01 x2 + 1.2648463043170530e-01 x3 <= -9.9432200193405174e-01
 C45_1 : 1.0000000000000000e+00 x0 + 5.0197213888168335e-01 x1 + 2.5197602821345200e-01 x2 + 1.2648494582921788e-01 x3 >= -9.9432080984115578e-01
 C45_2 : 1.0000000000000000e+00 x0 + 5.0197213888168335e-01 x1 + 2.5197602821345200e-01 x2 + 1.2648494582921788e-01 x3 <= -9.9432069063186679e-01
 C46_1 : 1.0000000000000000e+00 x0 + 5.0199997425079346e-01 x1 + 2.5200397414779729e-01 x2 + 1.2650598853329184e-01 x3 >= -9.9424082040786754e-01
 C46_2 : 1.0000000000000000e+00 x0 + 5.0199997425079346e-01 x1 + 2.5200397414779729e-01 x2 + 1.2650598853329184e-01 x3 <= -9.9424070119857810e-01
 C47_1 : 1.0000000000000000e+00 x0 + 5.0201427936553955e-01 x1 + 2.5201833668690199e-01 x2 + 1.2651680367877702e-01 x3 >= -9.9419981241226207e-01
 C47_2 : 1.0000000000000000e+00 x0 + 5.0201427936553955e-01 x1 + 2.5201833668690199e-01 x2 + 1.2651680367877702e-01 x3 <= -9.9419969320297263e-01
 C48_1 : 1.0000000000000000e+00 x0 + 5.0210994482040405e-01 x1 + 2.5211439668754920e-01 x2 + 1.2658914580921476e-01 x3 >= -9.9392479658126809e-01
 C48_2 : 1.0000000000000000e+00 x0 + 5.0210994482040405e-01 x1 + 2.5211439668754920e-01 x2 + 1.2658914580921476e-01 x3 <= -9.9392467737197909e-01
 C49_1 : 1.0000000000000000e+00 x0 + 5.0215131044387817e-01 x1 + 2.5215593858050411e-01 x2 + 1.2662043499440617e-01 x3 >= -9.9380606412887551e-01
 C49_2 : 1.0000000000000000e+00 x0 + 5.0215131044387817e-01 x1 + 2.5215593858050411e-01 x2 + 1.2662043499440617e-01 x3 <= -9.9380594491958651e-01
 C50_1 : 1.0000000000000000e+00 x0 + 5.0215965509414673e-01 x1 + 2.5216431920427240e-01 x2 + 1.2662674755866773e-01 x3 >= -9.9378198385238625e-01
 C50_2 : 1.0000000000000000e+00 x0 + 5.0215965509414673e-01 x1 + 2.5216431920427240e-01 x2 + 1.2662674755866773e-01 x3 <= -9.9378186464309726e-01
 C51_1 : 1.0000000000000000e+00 x0 + 5.0224995613098145e-01 x1 + 2.5225501843357279e-01 x2 + 1.2669507194208182e-01 x3 >= -9.9352258443832375e-01
 C51_2 : 1.0000000000000000e+00 x0 + 5.0224995613098145e-01 x1 + 2.5225501843357279e-01 x2 + 1.2669507194208182e-01 x3 <= -9.9352246522903476e-01
 C52_1 : 1.0000000000000000e+00 x0 + 5.0227522850036621e-01 x1 + 2.5228040516509509e-01 x2 + 1.2671419815046309e-01 x3 >= -9.9344998598098766e-01
 C52_2 : 1.0000000000000000e+00 x0 + 5.0227522850036621e-01 x1 + 2.5228040516509509e-01 x2 + 1.2671419815046309e-01 x3 <= -9.9344986677169822e-01
 C53_1 : 1.0000000000000000e+00 x0 + 5.0228095054626465e-01 x1 + 2.5228615328165915e-01 x2 + 1.2671852887997237e-01 x3 >= -9.9343353509902965e-01
 C53_2 : 1.0000000000000000e+00 x0 + 5.0228095054626465e-01 x1 + 2.5228615328165915e-01 x2 + 1.2671852887997237e-01 x3 <= -9.9343341588974021e-01
 C54_1 : 1.0000000000000000e+00 x0 + 5.0235503911972046e-01 x1 + 2.5236058532897587e-01 x2 + 1.2677461171521320e-01 x3 >= -9.9322074651718117e-01
 C54_2 : 1.0000000000000000e+00 x0 + 5.0235503911972046e-01 x1 + 2.5236058532897587e-01 x2 + 1.2677461171521320e-01 x3 <= -9.9322062730789218e-01
 C55_1 : 1.0000000000000000e+00 x0 + 5.0236380100250244e-01 x1 + 2.5236938855768187e-01 x2 + 1.2678124529251450e-01 x3 >= -9.9319559335708629e-01
 C55_2 : 1.0000000000000000e+00 x0 + 5.0236380100250244e-01 x1 + 2.5236938855768187e-01 x2 + 1.2678124529251450e-01 x3 <= -9.9319547414779685e-01
 C56_1 : 1.0000000000000000e+00 x0 + 5.0237596035003662e-01 x1 + 2.5238160553762157e-01 x2 + 1.2679045145664675e-01 x3 >= -9.9316066503524758e-01
 C56_2 : 1.0000000000000000e+00 x0 + 5.0237596035003662e-01 x1 + 2.5238160553762157e-01 x2 + 1.2679045145664675e-01 x3 <= -9.9316054582595859e-01
 C57_1 : 1.0000000000000000e+00 x0 + 5.0242424011230469e-01 x1 + 2.5243011705242679e-01 x2 + 1.2682700974152564e-01 x3 >= -9.9302202463150036e-01
 C57_2 : 1.0000000000000000e+00 x0 + 5.0242424011230469e-01 x1 + 2.5243011705242679e-01 x2 + 1.2682700974152564e-01 x3 <= -9.9302190542221092e-01
 C58_1 : 1.0000000000000000e+00 x0 + 5.0243669748306274e-01 x1 + 2.5244263497768671e-01 x2 + 1.2683644382211121e-01 x3 >= -9.9298626184463512e-01
 C58_2 : 1.0000000000000000e+00 x0 + 5.0243669748306274e-01 x1 + 2.5244263497768671e-01 x2 + 1.2683644382211121e-01 x3 <= -9.9298614263534568e-01
 C59_1 : 1.0000000000000000e+00 x0 + 5.0244462490081787e-01 x1 + 2.5245060109172357e-01 x2 + 1.2684244757151703e-01 x3 >= -9.9296349287033059e-01
 C59_2 : 1.0000000000000000e+00 x0 + 5.0244462490081787e-01 x1 + 2.5245060109172357e-01 x2 + 1.2684244757151703e-01 x3 <= -9.9296337366104159e-01
Bounds
  x0 free
  x1 free
  x2 free
  x3 free
End
